asp/input/in_60_30_10_2.lp
#const n = 60.
#const k = 30.
#const h = 10.
tile(1,11,11).
tile(2,16,9).
tile(3,2,4).
tile(4,2,29).
tile(5,22,28).
tile(6,8,18).
tile(7,20,23).
tile(8,29,24).
tile(9,27,19).
tile(10,10,14).
tile(11,7,1).
tile(12,26,16).
tile(13,10,17).
tile(14,25,11).
tile(15,23,27).
tile(16,14,2).
tile(17,3,9).
tile(18,23,10).
tile(19,6,15).
tile(20,28,4).
tile(21,13,28).
tile(22,24,25).
tile(23,20,25).
tile(24,3,18).
tile(25,23,29).
tile(26,16,8).
tile(27,16,16).
tile(28,6,26).
tile(29,24,17).
tile(30,17,2).
tile(31,12,21).
tile(32,16,4).
tile(33,13,6).
tile(34,14,9).
tile(35,23,2).
tile(36,27,17).
tile(37,12,4).
tile(38,12,10).
tile(39,22,4).
tile(40,14,6).
tile(41,1,18).
tile(42,9,18).
tile(43,23,8).
tile(44,28,18).
tile(45,25,6).
tile(46,15,25).
tile(47,4,3).
tile(48,28,30).
tile(49,8,4).
tile(50,1,19).
tile(51,15,24).
tile(52,19,3).
tile(53,4,24).
tile(54,9,5).
tile(55,16,6).
tile(56,1,17).
tile(57,30,19).
tile(58,23,19).
tile(59,24,5).
tile(60,9,1).
