minizinc/input/in_60_30_10_2.dzn
n = 60;
k = 30;
h = 10;
tiles = array2d(1..n, 1..2,
[ 11,11
, 16,9
, 2,4
, 2,29
, 22,28
, 8,18
, 20,23
, 29,24
, 27,19
, 10,14
, 7,1
, 26,16
, 10,17
, 25,11
, 23,27
, 14,2
, 3,9
, 23,10
, 6,15
, 28,4
, 13,28
, 24,25
, 20,25
, 3,18
, 23,29
, 16,8
, 16,16
, 6,26
, 24,17
, 17,2
, 12,21
, 16,4
, 13,6
, 14,9
, 23,2
, 27,17
, 12,4
, 12,10
, 22,4
, 14,6
, 1,18
, 9,18
, 23,8
, 28,18
, 25,6
, 15,25
, 4,3
, 28,30
, 8,4
, 1,19
, 15,24
, 19,3
, 4,24
, 9,5
, 16,6
, 1,17
, 30,19
, 23,19
, 24,5
, 9,1
]);